Minimize
 obj: 86.0 x1 + 86.0 x2 + 86.0 x3 + 75.0 x4 + 75.0 x5 + 75.0 x6 + 74.0 x7 + 74.0 x8 + 74.0 x9 - 10000000.0 x10 - 10000000.0 x11 - 10000000.0 x12 - 2800.0 x16 - 3400.0 x17 - 2500.0 x18 - 3200.0 x19 - 100000.0 x40 - 100000.0 x41 - 100000.0 x42 - 100000.0 x43 - 100000.0 x44 - 100000.0 x45 - 100000.0 x46 - 100000.0 x47 - 100000.0 x48 - 100000.0 x49 - 100000.0 x50 - 100000.0 x51 - 10.0 x65 - 30.0 x66 - 20.0 x67 - 26.666666666666668 x68 - 26.666666666666668 x69 - 26.666666666666668 x70 - 26.666666666666668 x71 - 26.666666666666668 x72 - 26.666666666666668 x73 - 26.666666666666668 x74 - 26.666666666666668 x75 - 26.666666666666668 x76 - 26.666666666666668 x77 - 26.666666666666668 x78 - 26.666666666666668 x79 - 26.666666666666668 x80 - 26.666666666666668 x81 - 26.666666666666668 x82 - 26.666666666666668 x83 - 26.666666666666668 x84 - 26.666666666666668 x85 - 26.666666666666668 x86 - 26.666666666666668 x87 - 26.666666666666668 x88 - 26.666666666666668 x89 - 26.666666666666668 x90 - 26.666666666666668 x91 - 4800.0 x92 - 4800.0 x93 - 4800.0 x94 - 4800.0 x95 - 4800.0 x96 - 4800.0 x97 - 4800.0 x98 - 4800.0 x99 - 4800.0 x100 - 4800.0 x101 - 4800.0 x102 - 4800.0 x103 + 1800.0 x104 + 1800.0 x105 + 1800.0 x106 + 1800.0 x107 + 1800.0 x108 + 1800.0 x109 + 1800.0 x110 + 1800.0 x111 + 1800.0 x112 + 1800.0 x113 + 1800.0 x114 + 1800.0 x115
Subject To
 c1: - 1.0 x64 == 1.0
 c2: 1.0 x1 + 1.0 x2 + 1.0 x3 + 1.0 x10 + 0.13 x64 <= 0.0
 c3: 1.0 x4 + 1.0 x5 + 1.0 x6 + 1.0 x11 + 0.13 x64 <= 0.0
 c4: 1.0 x7 + 1.0 x8 + 1.0 x9 + 1.0 x12 + 0.13 x64 <= 0.0
 c5: - 1.0 x1 - 1.0 x2 - 1.0 x3 + 1.0 x13 - 0.1 x64 + 1.0 x65 <= 0.0
 c6: - 1.0 x4 - 1.0 x5 - 1.0 x6 + 1.0 x14 - 0.1 x64 + 1.0 x66 <= 0.0
 c7: - 1.0 x7 - 1.0 x8 - 1.0 x9 + 1.0 x15 - 0.1 x64 + 1.0 x67 <= 0.0
 c8: - 1.0 x1 - 1.0 x4 - 1.0 x7 - 180.0 x20 + 1.0 x40 + 1.0 x68 <= 0.0
 c9: - 1.0 x1 - 1.0 x4 - 1.0 x7 - 180.0 x21 + 1.0 x41 + 1.0 x69 <= 0.0
 c10: - 1.0 x1 - 1.0 x4 - 1.0 x7 - 180.0 x22 + 1.0 x42 + 1.0 x70 <= 0.0
 c11: - 1.0 x1 - 1.0 x4 - 1.0 x7 - 180.0 x23 + 1.0 x43 + 1.0 x71 <= 0.0
 c12: - 1.0 x2 - 1.0 x5 - 1.0 x8 - 180.0 x24 + 1.0 x44 + 1.0 x72 <= 0.0
 c13: - 1.0 x2 - 1.0 x5 - 1.0 x8 - 180.0 x25 + 1.0 x45 + 1.0 x73 <= 0.0
 c14: - 1.0 x2 - 1.0 x5 - 1.0 x8 - 180.0 x26 + 1.0 x46 + 1.0 x74 <= 0.0
 c15: - 1.0 x2 - 1.0 x5 - 1.0 x8 - 180.0 x27 + 1.0 x47 + 1.0 x75 <= 0.0
 c16: - 1.0 x3 - 1.0 x6 - 1.0 x9 - 180.0 x28 + 1.0 x48 + 1.0 x76 <= 0.0
 c17: - 1.0 x3 - 1.0 x6 - 1.0 x9 - 180.0 x29 + 1.0 x49 + 1.0 x77 <= 0.0
 c18: - 1.0 x3 - 1.0 x6 - 1.0 x9 - 180.0 x30 + 1.0 x50 + 1.0 x78 <= 0.0
 c19: - 1.0 x3 - 1.0 x6 - 1.0 x9 - 180.0 x31 + 1.0 x51 + 1.0 x79 <= 0.0
 c20: 1.0 x1 + 1.0 x4 + 1.0 x7 + 180.0 x20 + 1.0 x52 + 1.0 x80 <= 0.0
 c21: 1.0 x1 + 1.0 x4 + 1.0 x7 + 180.0 x21 + 1.0 x53 + 1.0 x81 <= 0.0
 c22: 1.0 x1 + 1.0 x4 + 1.0 x7 + 180.0 x22 + 1.0 x54 + 1.0 x82 <= 0.0
 c23: 1.0 x1 + 1.0 x4 + 1.0 x7 + 180.0 x23 + 1.0 x55 + 1.0 x83 <= 0.0
 c24: 1.0 x2 + 1.0 x5 + 1.0 x8 + 180.0 x24 + 1.0 x56 + 1.0 x84 <= 0.0
 c25: 1.0 x2 + 1.0 x5 + 1.0 x8 + 180.0 x25 + 1.0 x57 + 1.0 x85 <= 0.0
 c26: 1.0 x2 + 1.0 x5 + 1.0 x8 + 180.0 x26 + 1.0 x58 + 1.0 x86 <= 0.0
 c27: 1.0 x2 + 1.0 x5 + 1.0 x8 + 180.0 x27 + 1.0 x59 + 1.0 x87 <= 0.0
 c28: 1.0 x3 + 1.0 x6 + 1.0 x9 + 180.0 x28 + 1.0 x60 + 1.0 x88 <= 0.0
 c29: 1.0 x3 + 1.0 x6 + 1.0 x9 + 180.0 x29 + 1.0 x61 + 1.0 x89 <= 0.0
 c30: 1.0 x3 + 1.0 x6 + 1.0 x9 + 180.0 x30 + 1.0 x62 + 1.0 x90 <= 0.0
 c31: 1.0 x3 + 1.0 x6 + 1.0 x9 + 180.0 x31 + 1.0 x63 + 1.0 x91 <= 0.0
 c32: 1.0 x16 - 1.0 x20 == 0.0
 c33: 1.0 x17 - 1.0 x21 == 0.0
 c34: 1.0 x18 - 1.0 x22 == 0.0
 c35: 1.0 x19 - 1.0 x23 == 0.0
 c36: - 1.0 x24 + 1.0 x32 == 0.0
 c37: - 1.0 x25 + 1.0 x33 == 0.0
 c38: - 1.0 x26 + 1.0 x34 == 0.0
 c39: - 1.0 x27 + 1.0 x35 == 0.0
 c40: - 1.0 x28 + 1.0 x36 == 0.0
 c41: - 1.0 x29 + 1.0 x37 == 0.0
 c42: - 1.0 x30 + 1.0 x38 == 0.0
 c43: - 1.0 x31 + 1.0 x39 == 0.0
 c44: 10000000.0 x10 - 10000000.0 x13 == 0.0
 c45: 10000000.0 x11 - 10000000.0 x14 == 0.0
 c46: 10000000.0 x12 - 10000000.0 x15 == 0.0
 c47: 100000.0 x40 - 100000.0 x52 == 0.0
 c48: 100000.0 x41 - 100000.0 x53 == 0.0
 c49: 100000.0 x42 - 100000.0 x54 == 0.0
 c50: 100000.0 x43 - 100000.0 x55 == 0.0
 c51: 100000.0 x44 - 100000.0 x56 == 0.0
 c52: 100000.0 x45 - 100000.0 x57 == 0.0
 c53: 100000.0 x46 - 100000.0 x58 == 0.0
 c54: 100000.0 x47 - 100000.0 x59 == 0.0
 c55: 100000.0 x48 - 100000.0 x60 == 0.0
 c56: 100000.0 x49 - 100000.0 x61 == 0.0
 c57: 100000.0 x50 - 100000.0 x62 == 0.0
 c58: 100000.0 x51 - 100000.0 x63 == 0.0
 c59: 1.0 x20 - 1.0 x32 + 1.0 x92 - 1.0 x104 == 0.0
 c60: 1.0 x21 - 1.0 x33 + 1.0 x93 - 1.0 x105 == 0.0
 c61: 1.0 x22 - 1.0 x34 + 1.0 x94 - 1.0 x106 == 0.0
 c62: 1.0 x23 - 1.0 x35 + 1.0 x95 - 1.0 x107 == 0.0
 c63: 1.0 x24 - 1.0 x36 + 1.0 x96 - 1.0 x108 == 0.0
 c64: 1.0 x25 - 1.0 x37 + 1.0 x97 - 1.0 x109 == 0.0
 c65: 1.0 x26 - 1.0 x38 + 1.0 x98 - 1.0 x110 == 0.0
 c66: 1.0 x27 - 1.0 x39 + 1.0 x99 - 1.0 x111 == 0.0
 c67: 1.0 x28 + 1.0 x100 - 1.0 x112 == 0.0
 c68: 1.0 x29 + 1.0 x101 - 1.0 x113 == 0.0
 c69: 1.0 x30 + 1.0 x102 - 1.0 x114 == 0.0
 c70: 1.0 x31 + 1.0 x103 - 1.0 x115 == 0.0
Bounds
 x10 <= 0.0
 x11 <= 0.0
 x12 <= 0.0
 x13 <= 0.0
 x14 <= 0.0
 x15 <= 0.0
 x40 <= 0.0
 x41 <= 0.0
 x42 <= 0.0
 x43 <= 0.0
 x44 <= 0.0
 x45 <= 0.0
 x46 <= 0.0
 x47 <= 0.0
 x48 <= 0.0
 x49 <= 0.0
 x50 <= 0.0
 x51 <= 0.0
 x52 <= 0.0
 x53 <= 0.0
 x54 <= 0.0
 x55 <= 0.0
 x56 <= 0.0
 x57 <= 0.0
 x58 <= 0.0
 x59 <= 0.0
 x60 <= 0.0
 x61 <= 0.0
 x62 <= 0.0
 x63 <= 0.0
 x64 <= 0.0
 x65 <= 0.0
 x66 <= 0.0
 x67 <= 0.0
 x68 <= 0.0
 x69 <= 0.0
 x70 <= 0.0
 x71 <= 0.0
 x72 <= 0.0
 x73 <= 0.0
 x74 <= 0.0
 x75 <= 0.0
 x76 <= 0.0
 x77 <= 0.0
 x78 <= 0.0
 x79 <= 0.0
 x80 <= 0.0
 x81 <= 0.0
 x82 <= 0.0
 x83 <= 0.0
 x84 <= 0.0
 x85 <= 0.0
 x86 <= 0.0
 x87 <= 0.0
 x88 <= 0.0
 x89 <= 0.0
 x90 <= 0.0
 x91 <= 0.0
 x92 <= 0.0
 x93 <= 0.0
 x94 <= 0.0
 x95 <= 0.0
 x96 <= 0.0
 x97 <= 0.0
 x98 <= 0.0
 x99 <= 0.0
 x100 <= 0.0
 x101 <= 0.0
 x102 <= 0.0
 x103 <= 0.0
 x104 <= 0.0
 x105 <= 0.0
 x106 <= 0.0
 x107 <= 0.0
 x108 <= 0.0
 x109 <= 0.0
 x110 <= 0.0
 x111 <= 0.0
 x112 <= 0.0
 x113 <= 0.0
 x114 <= 0.0
 x115 <= 0.0
 x1 free
 x2 free
 x3 free
 x4 free
 x5 free
 x6 free
 x7 free
 x8 free
 x9 free
 x16 free
 x17 free
 x18 free
 x19 free
 x20 free
 x21 free
 x22 free
 x23 free
 x24 free
 x25 free
 x26 free
 x27 free
 x28 free
 x29 free
 x30 free
 x31 free
 x32 free
 x33 free
 x34 free
 x35 free
 x36 free
 x37 free
 x38 free
 x39 free
End